Route #1: 1 1 35 33 34 25 53 39 58 60 62 64 19 15 2 13 16 12 10 1 
Route #2: 1 14 61 63 65 66 37 68 67 59 56 57 70 44 43 42 24 41 54 32 31 36 18 6 17 1 
Route #3: 1 11 55 49 50 48 22 21 30 26 9 3 1 
Route #4: 1 71 5 8 7 4 20 29 23 28 27 51 47 46 45 52 40 38 69 1 

Cost 450.333
Time 0.9779


 * Another infos *

 Iterations: 72 Time: 0.9779 sec - 0.0163 min - 0.0003 horas
0.0000 h 0.0163 min
Problem dimension: 72
